<number of tasks>
50

<cycle time>
1000

<order strength>
0.198


<task times>
1 432
2 467
3 412
4 422
5 334
6 493
7 534
8 392
9 272
10 409
11 344
12 748
13 370
14 426
15 593
16 772
17 495
18 334
19 522
20 740
21 387
22 763
23 313
24 370
25 649
26 598
27 525
28 483
29 594
30 797
31 502
32 619
33 660
34 448
35 573
36 568
37 553
38 654
39 578
40 662
41 445
42 487
43 450
44 404
45 439
46 404
47 540
48 457
49 720
50 410

<precedence relations>
1,9
2,8
2,23
2,30
3,10
3,19
4,11
5,12
5,42
6,35
7,12
7,35
8,14
9,13
10,15
11,16
12,17
12,18
12,19
12,30
13,20
14,21
15,22
16,23
19,26
19,44
20,24
21,25
22,26
22,27
22,28
22,30
23,29
24,33
25,34
26,31
27,32
29,35
29,36
30,49
31,38
32,39
33,40
34,41
35,37
35,42
36,43
36,44
36,45
37,46
38,48
39,48
40,47
42,49
43,49
45,50

<end>
